data;
set K:= K1 K2 K3 K4 K5 K6 K7 K8 K9 K10 ;

set F:= F1 F2 F3 ;

set Q:= Q1 Q2 ;

param T:= 45;
param V: 
	K1  K2  K3  K4  K5  K6  K7  K8  K9  K10 :=
Q1	1   1   1   1   1   1   0   0   0   0   
Q2	0   0   0   0   0   0   1   1   1   1   
; # if resorce k is of type q

param TF:= 
K1 6
K2 6
K3 6
K4 6
K5 6
K6 6
K7 12
K8 12
K9 12
K10 12
; # number of continuous time slots resource can fly

param TR:= 
K1 2
K2 2
K3 2
K4 2
K5 2
K6 2
K7 4
K8 4
K9 4
K10 4
; #  number of continuous time slots resource k needs to rest between flights

param P:= 
K1 36
K2 36
K3 36
K4 36
K5 36
K6 36
K7 36
K8 36
K9 36
K10 36
; #  number of continuous time slots a pilot can be present including rest times for resource k 

param N:= 
K1 4
K2 4
K3 4
K4 4
K5 4
K6 4
K7 1
K8 2
K9 2
K10 2
; # max number of flights resource k can fly in the total time period

param A: 
	K1  K2  K3  K4  K5  K6  K7  K8  K9  K10 :=
1	1   1   1   1   1   1   0   1   1   1   
2	1   1   1   1   1   1   0   1   1   1   
3	1   1   1   1   1   1   0   1   1   1   
4	1   1   1   1   1   1   0   1   1   1   
5	1   1   1   1   1   1   0   1   1   1   
6	1   1   1   1   1   1   0   1   1   1   
7	1   1   1   1   1   1   0   1   1   1   
8	1   1   1   1   1   1   0   1   1   1   
9	1   1   1   1   1   1   0   1   1   1   
10	1   1   1   1   1   1   0   1   1   1   
11	1   1   1   1   1   1   0   1   1   1   
12	1   1   1   1   1   1   0   1   1   1   
13	1   1   1   1   1   1   0   1   1   1   
14	1   1   1   1   1   1   1   1   1   1   
15	1   1   1   1   1   1   1   1   1   1   
16	1   1   1   1   1   1   1   1   1   1   
17	1   1   1   1   1   1   1   1   1   1   
18	1   1   1   1   1   1   1   1   1   1   
19	1   1   1   1   1   1   1   1   1   1   
20	1   1   1   1   1   1   1   1   1   1   
21	1   1   1   1   1   1   1   1   1   1   
22	1   1   1   1   1   1   1   1   1   1   
23	1   1   1   1   1   1   1   1   1   1   
24	1   1   1   1   1   1   1   1   1   1   
25	1   1   1   1   1   1   1   1   1   1   
26	1   1   1   1   1   1   1   1   1   1   
27	1   1   1   1   1   1   1   1   1   1   
28	1   1   1   1   1   1   1   1   1   1   
29	1   1   1   1   1   1   1   1   1   1   
30	1   1   1   1   1   1   1   1   1   1   
31	1   1   1   1   1   1   1   1   1   1   
32	1   1   1   1   1   1   1   1   1   1   
33	1   1   1   1   1   1   1   1   1   1   
34	1   1   1   1   1   1   1   1   1   1   
35	1   1   1   1   1   1   1   1   1   1   
36	1   1   1   1   1   1   1   1   1   1   
37	1   1   1   1   1   1   1   1   1   1   
38	1   1   1   1   1   1   1   1   1   1   
39	1   1   1   1   1   1   1   1   1   1   
40	1   1   1   1   1   1   1   1   1   1   
41	1   1   1   1   1   1   1   1   1   1   
42	1   1   1   1   1   1   1   1   1   1   
43	1   1   1   1   1   1   1   1   1   1   
44	1   1   1   1   1   1   1   1   1   1   
45	1   1   1   1   1   1   1   1   1   1   
; # availability of resorce k in time slot t

param B: 
	F1  F2  F3  :=
Q1	0   0   0   
Q2	0   0   0   
; # if front f requires resources of type q

param U: 
	F1  F2  F3  :=
K1	0   0   0   
K2	0   0   0   
K3	0   0   0   
K4	0   0   0   
K5	0   0   0   
K6	0   0   0   
K7	0   0   0   
K8	2   2   2   
K9	1   1   1   
K10	2   2   2   
; # transit time of resource

param C:= 
K1 900
K2 900
K3 900
K4 1500
K5 4500
K6 2100
K7 5500
K8 5500
K9 5500
K10 5500
; #  water capacity of resource k

param S:= 
F1 10
F2 10
F3 7
; # max number of resources that can fly at front f in the same time slot

param D:= 

[*,*,F1 ]:  K1    K2    K3    K4    K5    K6    K7    K8    K9    K10   :=
1           1.97  1.97  1.97  1.97  1.57  1.97  1.18  1.18  1.18  1.18  
2           1.97  1.97  1.97  1.97  1.57  1.97  1.18  1.18  1.18  1.18  
3           1.97  1.97  1.97  1.97  1.57  1.97  1.18  1.18  1.18  1.18  
4           1.97  1.97  1.97  1.97  1.57  1.97  1.18  1.18  1.18  1.18  
5           1.97  1.97  1.97  1.97  1.57  1.97  1.18  1.18  1.18  1.18  
6           1.97  1.97  1.97  1.97  1.57  1.97  1.18  1.18  1.18  1.18  
7           1.97  1.97  1.97  1.97  1.57  1.97  1.18  1.18  1.18  1.18  
8           1.97  1.97  1.97  1.97  1.57  1.97  1.18  1.18  1.18  1.18  
9           1.97  1.97  1.97  1.97  1.57  1.97  1.18  1.18  1.18  1.18  
10          1.97  1.97  1.97  1.97  1.57  1.97  1.18  1.18  1.18  1.18  
11          1.97  1.97  1.97  1.97  1.57  1.97  1.18  1.18  1.18  1.18  
12          1.97  1.97  1.97  1.97  1.57  1.97  1.18  1.18  1.18  1.18  
13          1.97  1.97  1.97  1.97  1.57  1.97  1.18  1.18  1.18  1.18  
14          1.97  1.97  1.97  1.97  1.57  1.97  1.18  1.18  1.18  1.18  
15          1.97  1.97  1.97  1.97  1.57  1.97  1.18  1.18  1.18  1.18  
16          1.97  1.97  1.97  1.97  1.57  1.97  1.18  1.18  1.18  1.18  
17          1.97  1.97  1.97  1.97  1.57  1.97  1.18  1.18  1.18  1.18  
18          1.97  1.97  1.97  1.97  1.57  1.97  1.18  1.18  1.18  1.18  
19          1.97  1.97  1.97  1.97  1.57  1.97  1.18  1.18  1.18  1.18  
20          1.97  1.97  1.97  1.97  1.57  1.97  1.18  1.18  1.18  1.18  
21          1.97  1.97  1.97  1.97  1.57  1.97  1.18  1.18  1.18  1.18  
22          1.97  1.97  1.97  1.97  1.57  1.97  1.18  1.18  1.18  1.18  
23          1.97  1.97  1.97  1.97  1.57  1.97  1.18  1.18  1.18  1.18  
24          1.97  1.97  1.97  1.97  1.57  1.97  1.18  1.18  1.18  1.18  
25          1.87  1.87  1.87  1.87  1.49  1.87  1.12  1.12  1.12  1.12  
26          1.87  1.87  1.87  1.87  1.49  1.87  1.12  1.12  1.12  1.12  
27          1.87  1.87  1.87  1.87  1.49  1.87  1.12  1.12  1.12  1.12  
28          1.87  1.87  1.87  1.87  1.49  1.87  1.12  1.12  1.12  1.12  
29          1.87  1.87  1.87  1.87  1.49  1.87  1.12  1.12  1.12  1.12  
30          1.87  1.87  1.87  1.87  1.49  1.87  1.12  1.12  1.12  1.12  
31          1.87  1.87  1.87  1.87  1.49  1.87  1.12  1.12  1.12  1.12  
32          1.87  1.87  1.87  1.87  1.49  1.87  1.12  1.12  1.12  1.12  
33          1.87  1.87  1.87  1.87  1.49  1.87  1.12  1.12  1.12  1.12  
34          1.97  1.97  1.97  1.97  1.57  1.97  1.18  1.18  1.18  1.18  
35          1.97  1.97  1.97  1.97  1.57  1.97  1.18  1.18  1.18  1.18  
36          1.97  1.97  1.97  1.97  1.57  1.97  1.18  1.18  1.18  1.18  
37          1.97  1.97  1.97  1.97  1.57  1.97  1.18  1.18  1.18  1.18  
38          1.97  1.97  1.97  1.97  1.57  1.97  1.18  1.18  1.18  1.18  
39          1.97  1.97  1.97  1.97  1.57  1.97  1.18  1.18  1.18  1.18  
40          1.97  1.97  1.97  1.97  1.57  1.97  1.18  1.18  1.18  1.18  
41          1.97  1.97  1.97  1.97  1.57  1.97  1.18  1.18  1.18  1.18  
42          1.97  1.97  1.97  1.97  1.57  1.97  1.18  1.18  1.18  1.18  
43          1.97  1.97  1.97  1.97  1.57  1.97  1.18  1.18  1.18  1.18  
44          1.97  1.97  1.97  1.97  1.57  1.97  1.18  1.18  1.18  1.18  
45          1.97  1.97  1.97  1.97  1.57  1.97  1.18  1.18  1.18  1.18  

[*,*,F2 ]:  K1    K2    K3    K4    K5    K6    K7    K8    K9    K10   :=
1           1.99  1.99  1.99  1.99  1.58  1.99  1.19  1.19  1.19  1.19  
2           1.99  1.99  1.99  1.99  1.58  1.99  1.19  1.19  1.19  1.19  
3           1.99  1.99  1.99  1.99  1.58  1.99  1.19  1.19  1.19  1.19  
4           1.99  1.99  1.99  1.99  1.58  1.99  1.19  1.19  1.19  1.19  
5           1.99  1.99  1.99  1.99  1.58  1.99  1.19  1.19  1.19  1.19  
6           1.99  1.99  1.99  1.99  1.58  1.99  1.19  1.19  1.19  1.19  
7           1.99  1.99  1.99  1.99  1.58  1.99  1.19  1.19  1.19  1.19  
8           1.99  1.99  1.99  1.99  1.58  1.99  1.19  1.19  1.19  1.19  
9           1.99  1.99  1.99  1.99  1.58  1.99  1.19  1.19  1.19  1.19  
10          1.99  1.99  1.99  1.99  1.58  1.99  1.19  1.19  1.19  1.19  
11          1.99  1.99  1.99  1.99  1.58  1.99  1.19  1.19  1.19  1.19  
12          1.99  1.99  1.99  1.99  1.58  1.99  1.19  1.19  1.19  1.19  
13          1.99  1.99  1.99  1.99  1.58  1.99  1.19  1.19  1.19  1.19  
14          1.99  1.99  1.99  1.99  1.58  1.99  1.19  1.19  1.19  1.19  
15          1.99  1.99  1.99  1.99  1.58  1.99  1.19  1.19  1.19  1.19  
16          1.99  1.99  1.99  1.99  1.58  1.99  1.19  1.19  1.19  1.19  
17          1.99  1.99  1.99  1.99  1.58  1.99  1.19  1.19  1.19  1.19  
18          1.99  1.99  1.99  1.99  1.58  1.99  1.19  1.19  1.19  1.19  
19          1.99  1.99  1.99  1.99  1.58  1.99  1.19  1.19  1.19  1.19  
20          1.99  1.99  1.99  1.99  1.58  1.99  1.19  1.19  1.19  1.19  
21          1.99  1.99  1.99  1.99  1.58  1.99  1.19  1.19  1.19  1.19  
22          1.99  1.99  1.99  1.99  1.58  1.99  1.19  1.19  1.19  1.19  
23          1.99  1.99  1.99  1.99  1.58  1.99  1.19  1.19  1.19  1.19  
24          1.99  1.99  1.99  1.99  1.58  1.99  1.19  1.19  1.19  1.19  
25          1.89  1.89  1.89  1.89  1.50  1.89  1.13  1.13  1.13  1.13  
26          1.89  1.89  1.89  1.89  1.50  1.89  1.13  1.13  1.13  1.13  
27          1.89  1.89  1.89  1.89  1.50  1.89  1.13  1.13  1.13  1.13  
28          1.89  1.89  1.89  1.89  1.50  1.89  1.13  1.13  1.13  1.13  
29          1.89  1.89  1.89  1.89  1.50  1.89  1.13  1.13  1.13  1.13  
30          1.89  1.89  1.89  1.89  1.50  1.89  1.13  1.13  1.13  1.13  
31          1.89  1.89  1.89  1.89  1.50  1.89  1.13  1.13  1.13  1.13  
32          1.89  1.89  1.89  1.89  1.50  1.89  1.13  1.13  1.13  1.13  
33          1.89  1.89  1.89  1.89  1.50  1.89  1.13  1.13  1.13  1.13  
34          1.99  1.99  1.99  1.99  1.58  1.99  1.19  1.19  1.19  1.19  
35          1.99  1.99  1.99  1.99  1.58  1.99  1.19  1.19  1.19  1.19  
36          1.99  1.99  1.99  1.99  1.58  1.99  1.19  1.19  1.19  1.19  
37          1.99  1.99  1.99  1.99  1.58  1.99  1.19  1.19  1.19  1.19  
38          1.99  1.99  1.99  1.99  1.58  1.99  1.19  1.19  1.19  1.19  
39          1.99  1.99  1.99  1.99  1.58  1.99  1.19  1.19  1.19  1.19  
40          1.99  1.99  1.99  1.99  1.58  1.99  1.19  1.19  1.19  1.19  
41          1.99  1.99  1.99  1.99  1.58  1.99  1.19  1.19  1.19  1.19  
42          1.99  1.99  1.99  1.99  1.58  1.99  1.19  1.19  1.19  1.19  
43          1.99  1.99  1.99  1.99  1.58  1.99  1.19  1.19  1.19  1.19  
44          1.99  1.99  1.99  1.99  1.58  1.99  1.19  1.19  1.19  1.19  
45          1.99  1.99  1.99  1.99  1.58  1.99  1.19  1.19  1.19  1.19  

[*,*,F3 ]:  K1    K2    K3    K4    K5    K6    K7    K8    K9    K10   :=
1           1.50  1.50  1.50  1.50  1.20  1.50  0.90  0.90  0.90  0.90  
2           1.50  1.50  1.50  1.50  1.20  1.50  0.90  0.90  0.90  0.90  
3           1.50  1.50  1.50  1.50  1.20  1.50  0.90  0.90  0.90  0.90  
4           1.50  1.50  1.50  1.50  1.20  1.50  0.90  0.90  0.90  0.90  
5           1.50  1.50  1.50  1.50  1.20  1.50  0.90  0.90  0.90  0.90  
6           1.50  1.50  1.50  1.50  1.20  1.50  0.90  0.90  0.90  0.90  
7           1.50  1.50  1.50  1.50  1.20  1.50  0.90  0.90  0.90  0.90  
8           1.50  1.50  1.50  1.50  1.20  1.50  0.90  0.90  0.90  0.90  
9           1.50  1.50  1.50  1.50  1.20  1.50  0.90  0.90  0.90  0.90  
10          1.50  1.50  1.50  1.50  1.20  1.50  0.90  0.90  0.90  0.90  
11          1.50  1.50  1.50  1.50  1.20  1.50  0.90  0.90  0.90  0.90  
12          1.50  1.50  1.50  1.50  1.20  1.50  0.90  0.90  0.90  0.90  
13          1.50  1.50  1.50  1.50  1.20  1.50  0.90  0.90  0.90  0.90  
14          1.50  1.50  1.50  1.50  1.20  1.50  0.90  0.90  0.90  0.90  
15          1.50  1.50  1.50  1.50  1.20  1.50  0.90  0.90  0.90  0.90  
16          1.50  1.50  1.50  1.50  1.20  1.50  0.90  0.90  0.90  0.90  
17          1.50  1.50  1.50  1.50  1.20  1.50  0.90  0.90  0.90  0.90  
18          1.50  1.50  1.50  1.50  1.20  1.50  0.90  0.90  0.90  0.90  
19          1.50  1.50  1.50  1.50  1.20  1.50  0.90  0.90  0.90  0.90  
20          1.50  1.50  1.50  1.50  1.20  1.50  0.90  0.90  0.90  0.90  
21          1.50  1.50  1.50  1.50  1.20  1.50  0.90  0.90  0.90  0.90  
22          1.50  1.50  1.50  1.50  1.20  1.50  0.90  0.90  0.90  0.90  
23          1.50  1.50  1.50  1.50  1.20  1.50  0.90  0.90  0.90  0.90  
24          1.50  1.50  1.50  1.50  1.20  1.50  0.90  0.90  0.90  0.90  
25          1.43  1.43  1.43  1.43  1.14  1.43  0.85  0.85  0.85  0.85  
26          1.43  1.43  1.43  1.43  1.14  1.43  0.85  0.85  0.85  0.85  
27          1.43  1.43  1.43  1.43  1.14  1.43  0.85  0.85  0.85  0.85  
28          1.43  1.43  1.43  1.43  1.14  1.43  0.85  0.85  0.85  0.85  
29          1.43  1.43  1.43  1.43  1.14  1.43  0.85  0.85  0.85  0.85  
30          1.43  1.43  1.43  1.43  1.14  1.43  0.85  0.85  0.85  0.85  
31          1.43  1.43  1.43  1.43  1.14  1.43  0.85  0.85  0.85  0.85  
32          1.43  1.43  1.43  1.43  1.14  1.43  0.85  0.85  0.85  0.85  
33          1.43  1.43  1.43  1.43  1.14  1.43  0.85  0.85  0.85  0.85  
34          1.50  1.50  1.50  1.50  1.20  1.50  0.90  0.90  0.90  0.90  
35          1.50  1.50  1.50  1.50  1.20  1.50  0.90  0.90  0.90  0.90  
36          1.50  1.50  1.50  1.50  1.20  1.50  0.90  0.90  0.90  0.90  
37          1.50  1.50  1.50  1.50  1.20  1.50  0.90  0.90  0.90  0.90  
38          1.50  1.50  1.50  1.50  1.20  1.50  0.90  0.90  0.90  0.90  
39          1.50  1.50  1.50  1.50  1.20  1.50  0.90  0.90  0.90  0.90  
40          1.50  1.50  1.50  1.50  1.20  1.50  0.90  0.90  0.90  0.90  
41          1.50  1.50  1.50  1.50  1.20  1.50  0.90  0.90  0.90  0.90  
42          1.50  1.50  1.50  1.50  1.20  1.50  0.90  0.90  0.90  0.90  
43          1.50  1.50  1.50  1.50  1.20  1.50  0.90  0.90  0.90  0.90  
44          1.50  1.50  1.50  1.50  1.20  1.50  0.90  0.90  0.90  0.90  
45          1.50  1.50  1.50  1.50  1.20  1.50  0.90  0.90  0.90  0.90  
; # downloads resource k can do at front f in time t if intermediate time slot

param E:= 

[*,*,F1 ]:  K1    K2    K3    K4    K5    K6    K7    K8    K9    K10   :=
1           0.04  0.71  0.85  0.12  0.74  0.39  0.04  0.11  0.63  0.17  
2           0.04  0.71  0.85  0.12  0.74  0.39  0.04  0.11  0.63  0.17  
3           0.04  0.71  0.85  0.12  0.74  0.39  0.04  0.11  0.63  0.17  
4           0.04  0.71  0.85  0.12  0.74  0.39  0.04  0.11  0.63  0.17  
5           0.04  0.71  0.85  0.12  0.74  0.39  0.04  0.11  0.63  0.17  
6           0.04  0.71  0.85  0.12  0.74  0.39  0.04  0.11  0.63  0.17  
7           0.04  0.71  0.85  0.12  0.74  0.39  0.04  0.11  0.63  0.17  
8           0.04  0.71  0.85  0.12  0.74  0.39  0.04  0.11  0.63  0.17  
9           0.04  0.71  0.85  0.12  0.74  0.39  0.04  0.11  0.63  0.17  
10          0.04  0.71  0.85  0.12  0.74  0.39  0.04  0.11  0.63  0.17  
11          0.04  0.71  0.85  0.12  0.74  0.39  0.04  0.11  0.63  0.17  
12          0.04  0.71  0.85  0.12  0.74  0.39  0.04  0.11  0.63  0.17  
13          0.04  0.71  0.85  0.12  0.74  0.39  0.04  0.11  0.63  0.17  
14          0.04  0.71  0.85  0.12  0.74  0.39  0.04  0.11  0.63  0.17  
15          0.04  0.71  0.85  0.12  0.74  0.39  0.04  0.11  0.63  0.17  
16          0.04  0.71  0.85  0.12  0.74  0.39  0.04  0.11  0.63  0.17  
17          0.04  0.71  0.85  0.12  0.74  0.39  0.04  0.11  0.63  0.17  
18          0.04  0.71  0.85  0.12  0.74  0.39  0.04  0.11  0.63  0.17  
19          0.04  0.71  0.85  0.12  0.74  0.39  0.04  0.11  0.63  0.17  
20          0.04  0.71  0.85  0.12  0.74  0.39  0.04  0.11  0.63  0.17  
21          0.04  0.71  0.85  0.12  0.74  0.39  0.04  0.11  0.63  0.17  
22          0.04  0.71  0.85  0.12  0.74  0.39  0.04  0.11  0.63  0.17  
23          0.04  0.71  0.85  0.12  0.74  0.39  0.04  0.11  0.63  0.17  
24          0.04  0.71  0.85  0.12  0.74  0.39  0.04  0.11  0.63  0.17  
25          0.04  0.67  0.80  0.11  0.70  0.37  0.03  0.10  0.59  0.16  
26          0.04  0.67  0.80  0.11  0.70  0.37  0.03  0.10  0.59  0.16  
27          0.04  0.67  0.80  0.11  0.70  0.37  0.03  0.10  0.59  0.16  
28          0.04  0.67  0.80  0.11  0.70  0.37  0.03  0.10  0.59  0.16  
29          0.04  0.67  0.80  0.11  0.70  0.37  0.03  0.10  0.59  0.16  
30          0.04  0.67  0.80  0.11  0.70  0.37  0.03  0.10  0.59  0.16  
31          0.04  0.67  0.80  0.11  0.70  0.37  0.03  0.10  0.59  0.16  
32          0.04  0.67  0.80  0.11  0.70  0.37  0.03  0.10  0.59  0.16  
33          0.04  0.67  0.80  0.11  0.70  0.37  0.03  0.10  0.59  0.16  
34          0.04  0.71  0.85  0.12  0.74  0.39  0.04  0.11  0.63  0.17  
35          0.04  0.71  0.85  0.12  0.74  0.39  0.04  0.11  0.63  0.17  
36          0.04  0.71  0.85  0.12  0.74  0.39  0.04  0.11  0.63  0.17  
37          0.04  0.71  0.85  0.12  0.74  0.39  0.04  0.11  0.63  0.17  
38          0.04  0.71  0.85  0.12  0.74  0.39  0.04  0.11  0.63  0.17  
39          0.04  0.71  0.85  0.12  0.74  0.39  0.04  0.11  0.63  0.17  
40          0.04  0.71  0.85  0.12  0.74  0.39  0.04  0.11  0.63  0.17  
41          0.04  0.71  0.85  0.12  0.74  0.39  0.04  0.11  0.63  0.17  
42          0.04  0.71  0.85  0.12  0.74  0.39  0.04  0.11  0.63  0.17  
43          0.04  0.71  0.85  0.12  0.74  0.39  0.04  0.11  0.63  0.17  
44          0.04  0.71  0.85  0.12  0.74  0.39  0.04  0.11  0.63  0.17  
45          0.04  0.71  0.85  0.12  0.74  0.39  0.04  0.11  0.63  0.17  

[*,*,F2 ]:  K1    K2    K3    K4    K5    K6    K7    K8    K9    K10   :=
1           0.12  0.87  0.79  0.08  0.76  0.50  0.06  0.10  0.65  0.11  
2           0.12  0.87  0.79  0.08  0.76  0.50  0.06  0.10  0.65  0.11  
3           0.12  0.87  0.79  0.08  0.76  0.50  0.06  0.10  0.65  0.11  
4           0.12  0.87  0.79  0.08  0.76  0.50  0.06  0.10  0.65  0.11  
5           0.12  0.87  0.79  0.08  0.76  0.50  0.06  0.10  0.65  0.11  
6           0.12  0.87  0.79  0.08  0.76  0.50  0.06  0.10  0.65  0.11  
7           0.12  0.87  0.79  0.08  0.76  0.50  0.06  0.10  0.65  0.11  
8           0.12  0.87  0.79  0.08  0.76  0.50  0.06  0.10  0.65  0.11  
9           0.12  0.87  0.79  0.08  0.76  0.50  0.06  0.10  0.65  0.11  
10          0.12  0.87  0.79  0.08  0.76  0.50  0.06  0.10  0.65  0.11  
11          0.12  0.87  0.79  0.08  0.76  0.50  0.06  0.10  0.65  0.11  
12          0.12  0.87  0.79  0.08  0.76  0.50  0.06  0.10  0.65  0.11  
13          0.12  0.87  0.79  0.08  0.76  0.50  0.06  0.10  0.65  0.11  
14          0.12  0.87  0.79  0.08  0.76  0.50  0.06  0.10  0.65  0.11  
15          0.12  0.87  0.79  0.08  0.76  0.50  0.06  0.10  0.65  0.11  
16          0.12  0.87  0.79  0.08  0.76  0.50  0.06  0.10  0.65  0.11  
17          0.12  0.87  0.79  0.08  0.76  0.50  0.06  0.10  0.65  0.11  
18          0.12  0.87  0.79  0.08  0.76  0.50  0.06  0.10  0.65  0.11  
19          0.12  0.87  0.79  0.08  0.76  0.50  0.06  0.10  0.65  0.11  
20          0.12  0.87  0.79  0.08  0.76  0.50  0.06  0.10  0.65  0.11  
21          0.12  0.87  0.79  0.08  0.76  0.50  0.06  0.10  0.65  0.11  
22          0.12  0.87  0.79  0.08  0.76  0.50  0.06  0.10  0.65  0.11  
23          0.12  0.87  0.79  0.08  0.76  0.50  0.06  0.10  0.65  0.11  
24          0.12  0.87  0.79  0.08  0.76  0.50  0.06  0.10  0.65  0.11  
25          0.11  0.83  0.76  0.08  0.72  0.47  0.06  0.09  0.62  0.10  
26          0.11  0.83  0.76  0.08  0.72  0.47  0.06  0.09  0.62  0.10  
27          0.11  0.83  0.76  0.08  0.72  0.47  0.06  0.09  0.62  0.10  
28          0.11  0.83  0.76  0.08  0.72  0.47  0.06  0.09  0.62  0.10  
29          0.11  0.83  0.76  0.08  0.72  0.47  0.06  0.09  0.62  0.10  
30          0.11  0.83  0.76  0.08  0.72  0.47  0.06  0.09  0.62  0.10  
31          0.11  0.83  0.76  0.08  0.72  0.47  0.06  0.09  0.62  0.10  
32          0.11  0.83  0.76  0.08  0.72  0.47  0.06  0.09  0.62  0.10  
33          0.11  0.83  0.76  0.08  0.72  0.47  0.06  0.09  0.62  0.10  
34          0.12  0.87  0.79  0.08  0.76  0.50  0.06  0.10  0.65  0.11  
35          0.12  0.87  0.79  0.08  0.76  0.50  0.06  0.10  0.65  0.11  
36          0.12  0.87  0.79  0.08  0.76  0.50  0.06  0.10  0.65  0.11  
37          0.12  0.87  0.79  0.08  0.76  0.50  0.06  0.10  0.65  0.11  
38          0.12  0.87  0.79  0.08  0.76  0.50  0.06  0.10  0.65  0.11  
39          0.12  0.87  0.79  0.08  0.76  0.50  0.06  0.10  0.65  0.11  
40          0.12  0.87  0.79  0.08  0.76  0.50  0.06  0.10  0.65  0.11  
41          0.12  0.87  0.79  0.08  0.76  0.50  0.06  0.10  0.65  0.11  
42          0.12  0.87  0.79  0.08  0.76  0.50  0.06  0.10  0.65  0.11  
43          0.12  0.87  0.79  0.08  0.76  0.50  0.06  0.10  0.65  0.11  
44          0.12  0.87  0.79  0.08  0.76  0.50  0.06  0.10  0.65  0.11  
45          0.12  0.87  0.79  0.08  0.76  0.50  0.06  0.10  0.65  0.11  

[*,*,F3 ]:  K1    K2    K3    K4    K5    K6    K7    K8    K9    K10   :=
1           0.12  0.54  0.63  0.00  0.50  0.30  0.04  0.13  0.46  0.05  
2           0.12  0.54  0.63  0.00  0.50  0.30  0.04  0.13  0.46  0.05  
3           0.12  0.54  0.63  0.00  0.50  0.30  0.04  0.13  0.46  0.05  
4           0.12  0.54  0.63  0.00  0.50  0.30  0.04  0.13  0.46  0.05  
5           0.12  0.54  0.63  0.00  0.50  0.30  0.04  0.13  0.46  0.05  
6           0.12  0.54  0.63  0.00  0.50  0.30  0.04  0.13  0.46  0.05  
7           0.12  0.54  0.63  0.00  0.50  0.30  0.04  0.13  0.46  0.05  
8           0.12  0.54  0.63  0.00  0.50  0.30  0.04  0.13  0.46  0.05  
9           0.12  0.54  0.63  0.00  0.50  0.30  0.04  0.13  0.46  0.05  
10          0.12  0.54  0.63  0.00  0.50  0.30  0.04  0.13  0.46  0.05  
11          0.12  0.54  0.63  0.00  0.50  0.30  0.04  0.13  0.46  0.05  
12          0.12  0.54  0.63  0.00  0.50  0.30  0.04  0.13  0.46  0.05  
13          0.12  0.54  0.63  0.00  0.50  0.30  0.04  0.13  0.46  0.05  
14          0.12  0.54  0.63  0.00  0.50  0.30  0.04  0.13  0.46  0.05  
15          0.12  0.54  0.63  0.00  0.50  0.30  0.04  0.13  0.46  0.05  
16          0.12  0.54  0.63  0.00  0.50  0.30  0.04  0.13  0.46  0.05  
17          0.12  0.54  0.63  0.00  0.50  0.30  0.04  0.13  0.46  0.05  
18          0.12  0.54  0.63  0.00  0.50  0.30  0.04  0.13  0.46  0.05  
19          0.12  0.54  0.63  0.00  0.50  0.30  0.04  0.13  0.46  0.05  
20          0.12  0.54  0.63  0.00  0.50  0.30  0.04  0.13  0.46  0.05  
21          0.12  0.54  0.63  0.00  0.50  0.30  0.04  0.13  0.46  0.05  
22          0.12  0.54  0.63  0.00  0.50  0.30  0.04  0.13  0.46  0.05  
23          0.12  0.54  0.63  0.00  0.50  0.30  0.04  0.13  0.46  0.05  
24          0.12  0.54  0.63  0.00  0.50  0.30  0.04  0.13  0.46  0.05  
25          0.11  0.51  0.60  0.00  0.48  0.29  0.04  0.12  0.44  0.05  
26          0.11  0.51  0.60  0.00  0.48  0.29  0.04  0.12  0.44  0.05  
27          0.11  0.51  0.60  0.00  0.48  0.29  0.04  0.12  0.44  0.05  
28          0.11  0.51  0.60  0.00  0.48  0.29  0.04  0.12  0.44  0.05  
29          0.11  0.51  0.60  0.00  0.48  0.29  0.04  0.12  0.44  0.05  
30          0.11  0.51  0.60  0.00  0.48  0.29  0.04  0.12  0.44  0.05  
31          0.11  0.51  0.60  0.00  0.48  0.29  0.04  0.12  0.44  0.05  
32          0.11  0.51  0.60  0.00  0.48  0.29  0.04  0.12  0.44  0.05  
33          0.11  0.51  0.60  0.00  0.48  0.29  0.04  0.12  0.44  0.05  
34          0.12  0.54  0.63  0.00  0.50  0.30  0.04  0.13  0.46  0.05  
35          0.12  0.54  0.63  0.00  0.50  0.30  0.04  0.13  0.46  0.05  
36          0.12  0.54  0.63  0.00  0.50  0.30  0.04  0.13  0.46  0.05  
37          0.12  0.54  0.63  0.00  0.50  0.30  0.04  0.13  0.46  0.05  
38          0.12  0.54  0.63  0.00  0.50  0.30  0.04  0.13  0.46  0.05  
39          0.12  0.54  0.63  0.00  0.50  0.30  0.04  0.13  0.46  0.05  
40          0.12  0.54  0.63  0.00  0.50  0.30  0.04  0.13  0.46  0.05  
41          0.12  0.54  0.63  0.00  0.50  0.30  0.04  0.13  0.46  0.05  
42          0.12  0.54  0.63  0.00  0.50  0.30  0.04  0.13  0.46  0.05  
43          0.12  0.54  0.63  0.00  0.50  0.30  0.04  0.13  0.46  0.05  
44          0.12  0.54  0.63  0.00  0.50  0.30  0.04  0.13  0.46  0.05  
45          0.12  0.54  0.63  0.00  0.50  0.30  0.04  0.13  0.46  0.05  
; # downloads resource k can do at front f in time t if starting or ending flight

param W: 
	F1        F2        F3        :=
1	538.65    538.65    538.65    
2	2154.59   2154.59   2154.59   
3	2154.59   2154.59   2154.59   
4	2154.59   2154.59   2154.59   
5	2154.59   2154.59   2154.59   
6	2154.59   2154.59   2154.59   
7	2154.59   2154.59   2154.59   
8	2154.59   2154.59   2154.59   
9	2154.59   2154.59   2154.59   
10	2154.59   2154.59   2154.59   
11	2154.59   2154.59   2154.59   
12	2154.59   2154.59   2154.59   
13	2154.59   2154.59   2154.59   
14	2154.59   2154.59   2154.59   
15	2154.59   2154.59   2154.59   
16	2154.59   2154.59   2154.59   
17	2154.59   2154.59   2154.59   
18	2154.59   2154.59   2154.59   
19	2154.59   2154.59   2154.59   
20	2154.59   2154.59   2154.59   
21	2154.59   2154.59   2154.59   
22	2154.59   2154.59   2154.59   
23	2154.59   2154.59   2154.59   
24	2154.59   2154.59   2154.59   
25	2154.59   2154.59   2154.59   
26	2154.59   2154.59   2154.59   
27	2154.59   2154.59   2154.59   
28	2154.59   2154.59   2154.59   
29	2154.59   2154.59   2154.59   
30	2154.59   2154.59   2154.59   
31	2154.59   2154.59   2154.59   
32	2154.59   2154.59   2154.59   
33	2154.59   2154.59   2154.59   
34	2154.59   2154.59   2154.59   
35	2154.59   2154.59   2154.59   
36	2154.59   2154.59   2154.59   
37	2154.59   2154.59   2154.59   
38	2154.59   2154.59   2154.59   
39	2154.59   2154.59   2154.59   
40	2154.59   2154.59   2154.59   
41	2154.59   2154.59   2154.59   
42	2154.59   2154.59   2154.59   
43	2154.59   2154.59   2154.59   
44	2154.59   2154.59   2154.59   
45	538.65    538.65    538.65    
; # water needed at front f in time slot t

param M := 100000000; 

param a1:= 10000000;

param a2:= 100;

param a3:= 0.0001;
